files/upTests/___simple/set_of_tuples/0001.eprime.solution
language ESSENCE' 1.0
$ minion Nodes: 6
$ minion TotalTime: 0.000729
$ Savile Row TotalTime: 0.138
letting x_Explicit_tuple3 be [6, 7;int(1..2)]
letting x_Explicit_tuple2 be [4, 4;int(1..2)]
letting x_Explicit_tuple1 be [2, 2;int(1..2)]
